92 73 93 30 10 80 24 88 99 36 41 66 42 47 56 35 16 97 87 82 34 70 38 90 17 31 98 89 46 86 57 76 53 74 39 26 62 68 2 48 85 7 28 61 22 69 20 8 40 51 91 43 1 79 3 50 44 78 96 84 27 72 21 37 25 59 12 95 58 45 4 55 64 49 6 9 13 18 14 23 77 54 29 32 33 52 5 19 71 75 63 94 67 81 11 15 65 60 83 0 

